27 3
3 6 6
0 0 0 0 25 2 3 4 5 6 7 8 9 10 11 12 13 14 15 16 17 18 19 20 21 22 23 24 25 26
5 0 1 1 3 27 17 18
2 0 0 0 2 27 18
5 1 0 1 4 27 19 11 12
1 0 0 0 5 27 22 8 19 18
1 1 1 1 4 27 18 26 10
1 1 1 2 3 27 10 22
5 0 2 0 5 27 17 19 15 17
3 0 3 2 4 27 23 10 12
3 1 2 3 4 27 23 24 25
5 1 0 0 2 27 17
1 1 2 2 5 27 21 24 20 21
2 1 3 2 4 27 22 20 19
5 0 3 2 2 27 22
5 0 1 3 2 27 23
3 1 0 3 4 27 20 25 24
1 1 0 1 3 27 21 26
2 1 2 2 3 27 19 25
4 1 0 0 1 27
2 0 0 1 2 27 25
4 0 0 0 1 27
5 1 2 3 1 27
2 0 3 0 2 27 26
2 0 3 1 1 27
5 0 0 2 2 27 26
3 1 3 3 1 27
0 0 0 0 0
